10	6	3.25
2 1 5 4 4 2 1 3 5 5 2 6 6
2 3 2 5 3 5 5 8 1 1 6
2 6 1 2 2 4 3 9 4 8 5 3 6 9 3 1 4 2 2 6 7
2 3 4 3 5 6 6 7 4 1 2 2 1 3 9 4 4
2 3 1 6 2 4 5 8 3 4 2 5 3 6 5
2 1 4 4 4 3 4 4 7 5 4 6 6
2 5 1 6 2 6 3 7 5 8 6 3 4 1 5 2 7 5 3 6 4
2 6 1 5 2 3 3 5 4 2 5 5 6 3 1 4 2
2 6 1 2 2 8 3 7 4 8 5 9 6 6 1 3 8
2 3 2 2 4 9 5 5 3 2 1 4 9 6 3
